1 500 232
2 942 492
3 432 590
4 430 593
5 334 659
6 939 604
7 838 654
8 320 456
9 342 657
10 645 340
11 245 843
12 509 499
13 239 554
14 265 432
15 433 283
16 932 232
17 349 514
18 375 378
19 294 239
20 693 854

